peakDumbCharging = 22200; 
Machine = anon_enum(16); 
machineSpeed = [3700,3700,3700,3700,3700,3700,3700,3700,3700,3700,3700,3700,3700,3700,3700,3700]; 
machineLoad = [3700,3700,3700,3700,3700,3700,3700,3700,3700,3700,3700,3700,3700,3700,3700,3700]; 
Car = anon_enum(23); 
demandCar = [14000,16880,4680,8720,5080,7880,16400,120,21040,4360,1640,6880,20520,8000,16080,12160,6080,9320,40160,15520,25000,22640,11840]; 
arrivalCar = [69,61,61,60,59,58,55,55,55,49,45,39,39,36,35,35,35,32,31,26,26,26,24]; 
departureCar = [74,68,64,65,64,64,62,56,65,53,47,45,46,42,45,40,40,36,47,36,39,64,44]; 
